submitit INFO (2023-04-30 13:43:43,570) - Starting with JobEnvironment(job_id=27528, hostname=cpunode24, local_rank=0(5), node=0(1), global_rank=0(5))
submitit INFO (2023-04-30 13:43:43,570) - Loading pickle: /h/30/pashootan/Matrix-Mult-CP/src/../logs/2x2x2_5_Apr30_13:43:41/27528_submitted.pkl
 ! --------------------------------------------------- CP Optimizer 22.1.1.0 --
 ! Satisfiability problem - 60 variables, 64 constraints
 ! TimeLimit            = 7200
 ! Workers              = 8
 ! LogPeriod            = 10000000
 ! RandomSeed           = 5052
 ! Initial process time : 0.00s (0.00s extraction + 0.00s propagation)
 !  . Log search space  : 95.1 (before), 95.1 (after)
 !  . Memory usage      : 398.3 kB (before), 398.3 kB (after)
 ! Using parallel search with 8 workers.
 ! ----------------------------------------------------------------------------
 !               Branches  Non-fixed    W       Branch decision
                   10000k          7    8   F    -1 != U4_0
                   10000k          6    7   F    -1  = U0_1
                   10000k          6    3   F    -1 != W1_2
                   10000k          4    4         1  = W0_3
                   10000k          6    6   F     0  = U2_3
                   10000k          4    2         0 != U2_1
                   10000k          4    1        -1  = V3_1
                   10000k          4    5   F     0  = V3_3
                   20000k          7    8            -
                   20000k          6    7   F    -1  = V0_0
                   20000k          6    3         1 != V4_3
                   20000k          7    1        -1  = V0_3
                   20000k          7    4   F    -1 != U4_3
                   20000k          5    2         1  = V1_3
                   20000k          6    6   F     1  = W4_0
                   20000k          7    5         1 != W0_0
                   30000k          6    8        -1  = U1_2
                   30000k          6    7        -1 != U2_2
                   30000k          8    1   F    -1  = W1_3
                   30000k          7    3   F    -1  = W1_0
 ! Time = 292.27s, Average fail depth = 19, Memory usage = 142.7 MB
 !               Branches  Non-fixed    W       Branch decision
                   30000k          7    4   F     1 != V4_0
                   30000k          7    6   F     0 != V2_3
                   30000k          4    2         0 != U2_1
                   30000k          8    5   F     0 != U4_3
                   40000k          6    8            -
                   40000k          7    7   F    -1  = U4_0
                   40000k          6    1   F    -1  = W0_3
                   40000k          7    3         0  = W4_1
                   40000k          7    4         0  = W0_0
                   40000k          7    2         0  = W2_1
                   40000k          7    5        -1 != U0_0
                   40000k          8    6         1 != W0_3
                   50000k          6    8        -1 != U2_3
                   50000k          6    7         0 != W3_2
                   50000k          6    1         1  = V4_3
                   50000k          7    3   F     0  = U1_2
                   50000k          7    6         0 != V0_1
                   50000k          7    2   F     0 != W1_3
                   50000k          7    5         1  = W0_3
                   50000k          7    4         0 != V2_0
 ! Time = 503.81s, Average fail depth = 19, Memory usage = 232.6 MB
 !               Branches  Non-fixed    W       Branch decision
                   60000k          6    8         0 != V3_1
                   60000k          8    7   F     0  = U0_1
                   60000k          8    1         0 != W0_3
                   60000k          7    3   F    -1  = W4_1
                   60000k          7    6   F    -1  = V0_3
                   60000k          7    2         0  = U1_0
                   60000k          8    5   F     0  = V3_0
                   60000k          9    4         1 != W1_3
                   70000k          7    8         0 != V2_0
                   70000k          7    1   F    -1 != V0_0
                   70000k          8    7   F    -1 != U2_2
                   70000k          6    2         0 != V2_2
                   70000k          7    6   F     1 != U3_0
                   70000k          6    3   F    -1  = U4_1
                   70000k          8    5   F     1 != W4_3
                   70000k          7    4         1  = W2_3
                   80000k          6    8        -1 != W1_3
                   80000k          8    7   F    -1 != W1_3
                   80000k          8    1   F    -1  = U0_3
                   80000k          8    3         0 != U3_0
 ! Time = 800.20s, Average fail depth = 19, Memory usage = 361.3 MB
 !               Branches  Non-fixed    W       Branch decision
                   80000k          6    6   F     1  = W0_1
                   80000k          7    5         0 != W2_2
                   80000k          7    2         0 != U2_1
                   80000k          7    4         1  = W4_0
                   90000k          6    8   F    -1 != U0_0
                   90000k          7    1   F     0  = V0_0
                   90000k          7    3   F     0 != V2_2
                   90000k          8    7        -1  = V0_1
                   90000k          7    2   F     1 != V0_3
                   90000k          6    6   F    -1 != W2_0
                   90000k          9    5   F    -1  = V3_0
                   90000k          9    4   F     0  = U3_3
                     100M          6    8         0 != V4_1
                     100M          7    1         1 != W3_3
                     100M          7    2   F     0 != W2_3
                     100M          7    3        -1 != U0_1
                     100M          7    5   F     1  = W1_0
                     100M          7    7         0 != U4_1
                     100M          8    4   F     0 != W2_3
                     100M          8    6        -1  = V0_3
 ! Time = 1012.15s, Average fail depth = 19, Memory usage = 452.8 MB
 !               Branches  Non-fixed    W       Branch decision
                     110M          6    8   F    -1  = V1_2
                     110M          9    1   F    -1  = V4_2
                     110M          6    2        -1 != U1_3
                     110M          7    3   F     1 != V0_0
                     110M          8    7        -1  = V3_0
                     110M          7    4         0  = W0_0
                     110M          8    5   F    -1 != W3_0
                     110M          7    6   F    -1  = W2_0
                     120M          6    8        -1  = V2_3
                     120M          9    1        -1 != W1_3
                     120M          7    2         0 != U1_2
                     120M          8    3   F    -1  = U3_1
                     120M          7    7        -1  = U2_1
                     120M          7    5         0 != W1_3
                     120M          8    4   F     0 != V1_0
                     120M          7    6   F     0  = V1_0
                     130M          7    8        -1 != W0_1
                     130M          6    1   F     1 != V3_3
                     130M          6    2         1  = W4_1
                     130M          8    4         1  = U1_2
 ! Time = 1316.59s, Average fail depth = 19, Memory usage = 580.4 MB
 !               Branches  Non-fixed    W       Branch decision
                     130M          8    7   F     0  = V1_1
                     130M          7    3        -1 != W1_3
                     130M          8    5        -1 != W3_0
                     130M          8    6   F     0  = U3_2
                     140M          6    8   F     1 != W3_2
                     140M          6    2   F     0  = U3_0
                     140M          7    1   F     1 != W0_3
                     140M          8    7   F    -1 != U4_0
                     140M          8    3         0 != U1_2
                     140M          7    4   F    -1  = U0_1
                     140M          7    5         0  = V1_3
                     140M          7    6   F     1 != V0_2
                     150M          6    8         1  = V3_1
                     150M          7    2   F    -1  = U3_0
                     150M          8    1         1 != W1_3
                     150M          8    3        -1  = V1_0
                     150M          7    4         1 != V2_2
                     150M          7    7   F     1  = U2_0
                     150M          7    5   F     1 != V2_0
                     150M          8    6        -1  = W1_0
 ! Time = 1528.65s, Average fail depth = 19, Memory usage = 671.4 MB
 !               Branches  Non-fixed    W       Branch decision
                     160M          6    8        -1  = U1_0
                     160M          6    2   F     1  = U3_3
                     160M          8    3   F     0 != V0_3
                     160M          8    1        -1  = U1_0
                     160M          8    4   F    -1  = V0_1
                     160M          7    7   F    -1  = V1_0
                     160M          7    5         1 != U2_3
                     160M          8    6         1 != W0_3
                     170M          6    8         0 != U3_2
                     170M          7    2        -1  = U0_3
                     170M          7    3   F    -1 != W1_0
                     170M          9    1   F    -1  = U4_1
                     170M          8    4   F     1  = V2_2
                     170M          8    5         1 != W0_3
                     170M          9    6   F    -1 != W1_2
                     170M          8    7         0 != W2_3
                     180M          7    8        -1 != W4_0
                     180M          6    2        -1  = V1_3
                     180M         11    3   F     0  = V1_1
                     180M          9    1   F     0  = W2_3
 ! Time = 1818.22s, Average fail depth = 19, Memory usage = 792.4 MB
 !               Branches  Non-fixed    W       Branch decision
                     180M          9    4   F    -1  = W4_3
                     180M          8    5         0 != W2_0
                     180M          8    6         1 != V4_1
                     180M          7    7   F     1 != U1_2
                     190M          6    8            -
                     190M          6    2   F     1 != U1_1
                     190M          7    3         0  = W1_1
                     190M          8    1   F     1 != U0_3
                     190M          7    5         0 != V0_0
                     190M          8    6   F     0 != U1_3
                     190M          7    4         0 != U3_2
                     190M         10    7   F     0  = V0_0
                     200M          6    2   F     1 != U3_3
                     200M          6    8         0 != V2_3
                     200M          8    3   F    -1  = U4_2
                     200M          7    6   F     0  = W3_1
                     200M          8    4         1  = V4_3
                     200M          6    5   F     0  = U4_0
                     200M          8    1         1 != V3_3
                     200M          8    7         0 != V1_0
 ! Time = 2038.03s, Average fail depth = 19, Memory usage = 882.0 MB
 !               Branches  Non-fixed    W       Branch decision
                     210M          6    2   F     0 != W0_1
                     210M          6    8   F    -1  = W2_3
                     210M          7    3        -1  = W3_3
                     210M          7    6   F    -1  = V0_1
                     210M          8    4        -1 != U3_0
                     210M          6    5         0  = V4_0
                     210M          8    1         0 != U0_0
                     210M          8    7   F    -1  = U3_3
                     220M          6    2   F     1  = U4_2
                     220M          6    8   F     0 != U4_0
                     220M          7    3         0 != U2_1
                     220M          7    6   F     0  = V1_2
                     220M          7    1   F     1  = W4_3
                     220M          7    5   F     1  = U1_3
                     220M          7    4   F     0 != W0_1
                     220M          8    7         0 != U4_3
                     230M          7    2         1 != V4_0
                     230M          6    8         0 != U3_0
                     230M         10    3         1 != W2_0
                     230M          8    6         1 != U0_2
 ! Time = 2336.42s, Average fail depth = 19, Memory usage = 1.0 GB
 !               Branches  Non-fixed    W       Branch decision
                     230M          8    1         0 != U0_3
                     230M          9    5   F     1 != W1_0
                     230M          8    4   F    -1 != W0_3
                     230M          7    7   F    -1 != V2_1
                     240M          7    2   F    -1 != W1_3
                     240M          6    8   F    -1  = V2_1
                     240M          7    6        -1  = W0_1
                     240M          7    3        -1 != W2_3
                     240M          9    1         1  = V0_0
                     240M          8    4         1  = W3_2
                     240M          7    5         1  = W4_3
                     240M          8    7         0 != W2_1
                     250M          6    8   F     1 != V4_3
                     250M          8    2         1 != V2_3
                     250M          8    3        -1  = V4_2
                     250M          8    1         1  = U3_0
                     250M          9    6   F    -1 != U0_1
                     250M          8    4         1 != W3_2
                     250M          8    5   F    -1  = U3_2
                     250M         10    7   F     1 != U2_0
 ! Time = 2554.11s, Average fail depth = 19, Memory usage = 1.1 GB
 !               Branches  Non-fixed    W       Branch decision
                     260M          6    8            -
                     260M          7    2        -1 != W3_3
                     260M          8    3   F     1  = V3_2
                     260M          8    6         1  = U3_0
                     260M          8    4         0 != W3_2
                     260M          6    1   F     0  = U4_1
                     260M          9    5         1 != W0_0
                     260M          9    7   F    -1  = W2_1
                     270M          6    8   F     0 != W3_2
                     270M          8    2   F    -1 != V0_0
                     270M          8    3   F     0 != U0_3
                     270M          8    6        -1 != W0_2
                     270M          7    4   F     1  = V2_1
                     270M          8    1        -1  = U4_1
                     270M          7    7   F     0 != U0_0
                     270M          8    5         0  = U4_0
                     280M          6    8        -1 != U3_2
                     280M          7    2   F    -1 != W4_3
                     280M          7    3   F    -1 != U3_1
                     280M          7    4         0 != W0_0
 ! Time = 2843.17s, Average fail depth = 19, Memory usage = 1.2 GB
 !               Branches  Non-fixed    W       Branch decision
                     280M          7    6        -1 != V2_0
                     280M          7    1         1 != U3_3
                     280M          8    5   F     0  = U4_2
                     280M          7    7   F    -1  = W1_0
                     290M          6    8   F     0  = U0_3
                     290M          9    2         1  = W2_1
                     290M          8    3   F     1  = W3_2
                     290M          7    4        -1 != W1_3
                     290M          7    6         0  = V1_3
                     290M          8    1         0 != W2_3
                     290M          8    5   F    -1  = U2_1
                     290M          9    7        -1 != U2_1
                     300M          6    8   F     1 != W0_1
                     300M          8    2   F     1  = U0_0
                     300M          8    3         1 != V4_2
                     300M          8    4   F     0  = V2_3
                     300M          7    1   F    -1  = W4_3
                     300M          7    6         1 != V4_3
                     300M          7    5   F     0  = V2_1
                     300M          8    7        -1  = U4_1
 ! Time = 3072.87s, Average fail depth = 19, Memory usage = 1.3 GB
 !               Branches  Non-fixed    W       Branch decision
                     310M          6    8            -
                     310M          7    2   F    -1  = W1_3
                     310M          8    3   F     0 != V1_1
                     310M          6    4         0  = U2_3
                     310M          8    1   F    -1 != V1_1
                     310M          6    6         1 != U1_0
                     310M          8    7        -1 != W1_0
                     310M          7    5   F    -1  = W2_2
                     320M          6    8        -1 != V0_2
                     320M          8    3         0 != U4_0
                     320M          8    2         1  = U3_0
                     320M          8    4   F     1 != V1_1
                     320M          7    6   F     1 != W3_0
                     320M          8    1   F     1 != U4_0
                     320M          8    7   F    -1 != U3_2
                     320M          9    5   F     0  = U0_3
                     330M          6    8   F        -
                     330M          7    3         1 != W4_0
                     330M          8    2   F     0  = V2_3
                     330M          8    4   F    -1 != W0_0
 ! Time = 3346.24s, Average fail depth = 19, Memory usage = 1.4 GB
 !               Branches  Non-fixed    W       Branch decision
                     330M          7    6         1 != U2_1
                     330M          8    1         0 != U4_1
                     330M         12    7   F     1 != U1_0
                     330M          8    5   F    -1 != U0_3
                     340M          6    8   F     0  = W2_1
                     340M          7    2         1 != U4_1
                     340M          9    4         1 != W1_3
                     340M          9    3         0 != W1_2
                     340M          9    1   F     0 != U4_3
                     340M          9    6   F     1 != V3_1
                     340M          8    7        -1 != V1_1
                     340M          8    5        -1  = U4_0
                     350M          6    8   F     1  = W1_3
                     350M          8    2        -1  = V3_0
                     350M          8    4         0 != V2_3
                     350M          7    3   F     0  = U0_2
                     350M          7    1   F     1  = V3_0
                     350M          8    6         0  = U1_3
                     350M          8    7        -1 != V3_2
                     350M          8    5         1  = U4_1
 ! Time = 3579.33s, Average fail depth = 19, Memory usage = 1.5 GB
 !               Branches  Non-fixed    W       Branch decision
                     360M          7    8            -
                     360M          7    2         1 != W3_3
                     360M          7    3        -1  = U4_0
                     360M          7    4        -1 != W1_2
                     360M          8    1         0 != W2_0
                     360M          7    6   F    -1 != V4_2
                     360M          8    7         0 != U3_2
                     360M          7    5        -1  = W3_3
                     370M          6    8        -1  = W2_1
                     370M          7    3        -1 != U1_0
                     370M          9    2   F     0 != V0_2
                     370M          7    4   F    -1  = W0_0
                     370M          8    1        -1  = W3_1
                     370M          7    6   F     1 != U0_0
                     370M          7    7   F    -1 != U4_1
                     370M          7    5   F    -1  = V3_2
                     380M          6    8   F     1 != W1_1
                     380M          8    2         1 != W0_3
                     380M         11    3   F     1  = W3_0
                     380M          7    1        -1 != U0_0
 ! Time = 3857.43s, Average fail depth = 19, Memory usage = 1.7 GB
 !               Branches  Non-fixed    W       Branch decision
                     380M          7    4        -1  = W0_3
                     380M          8    5         1 != U2_2
                     380M          8    6   F     1 != U3_2
                     380M         12    7   F    -1 != V2_0
                     390M          6    8         0 != V0_1
                     390M          7    1        -1 != W1_1
                     390M          8    2         0 != U2_3
                     390M          7    3         1 != U0_3
                     390M          8    4         1 != U0_3
                     390M          8    6   F     0  = U1_0
                     390M          7    5   F    -1 != W1_2
                     390M          7    7         0  = W4_3
                     400M          5    8   F     0  = W2_2
                     400M          8    2        -1 != U0_0
                     400M          8    1         1 != W0_3
                     400M          9    4   F     0  = V0_3
                     400M          8    3         0 != W3_3
                     400M          7    6         0  = V4_0
                     400M          7    5   F    -1  = W0_3
                     400M          9    7   F    -1  = V3_2
 ! Time = 4092.56s, Average fail depth = 19, Memory usage = 1.8 GB
 !               Branches  Non-fixed    W       Branch decision
                     410M          6    8   F    -1  = W3_1
                     410M          8    2   F     0 != V1_0
                     410M          9    4        -1  = U4_3
                     410M          8    1        -1  = V1_3
                     410M          7    3   F     1  = U3_2
                     410M          8    6         1 != U0_2
                     410M          7    5        -1 != U2_1
                     410M          8    7         0 != V0_1
                     420M          6    8   F     0 != W4_1
                     420M          8    4   F    -1 != V0_1
                     420M          8    2         1  = V1_0
                     420M          9    1         0 != V0_2
                     420M          7    3         0  = W0_3
                     420M          7    5        -1 != V3_3
                     420M          6    6         1 != U3_0
                     420M          7    7   F     1  = U2_2
                     430M          6    8        -1 != U1_3
                     430M          8    4   F    -1  = U4_0
                     430M          6    2        -1 != V0_0
                     430M          7    1        -1  = W3_0
 ! Time = 4357.90s, Average fail depth = 19, Memory usage = 1.9 GB
 !               Branches  Non-fixed    W       Branch decision
                     430M          7    3   F    -1 != W3_3
                     430M          8    6   F     1  = U1_0
                     430M          8    5   F    -1  = V2_1
                     430M          7    7        -1  = W0_3
                     440M          7    8   F    -1 != V1_3
                     440M          8    2   F     1  = U1_0
                     440M          9    4   F    -1 != W1_3
                     440M         10    3   F     1 != V4_3
                     440M          9    1   F    -1 != W0_0
                     440M          8    5        -1  = W2_1
                     440M          8    6         0  = W1_1
                     440M          9    7   F     1 != W0_0
                     450M          6    8   F        -
                     450M          8    2   F     1 != W0_2
                     450M          8    1         1  = W2_1
                     450M          8    4   F     0  = W1_1
                     450M          7    5        -1  = V1_1
                     450M          8    6         1  = V2_2
                     450M         10    3   F    -1 != V3_1
                     450M         12    7         1  = W0_2
 ! Time = 4610.63s, Average fail depth = 19, Memory usage = 2.0 GB
 !               Branches  Non-fixed    W       Branch decision
                     460M          6    8   F     0  = U2_0
                     460M          8    1   F    -1 != U2_1
                     460M          9    2        -1  = U1_0
                     460M          8    4         0 != U2_0
                     460M          7    5   F     1  = V0_1
                     460M          8    6   F     0 != V0_2
                     460M          7    3        -1 != U2_2
                     460M          9    7         1  = W0_0
                     470M          6    8   F    -1  = V3_2
                     470M          8    1         0 != W2_1
                     470M          8    2   F    -1 != U1_0
                     470M          9    5   F     1 != U3_1
                     470M          8    4   F     0 != V2_3
                     470M          8    6         0 != U3_2
                     470M         12    3   F     0  = V2_1
                     470M          7    7   F     0 != U2_1
                     480M          6    8            -
                     480M          8    2   F    -1  = U0_0
                     480M         12    1   F    -1  = W2_3
                     480M          8    4   F     1 != V3_3
 ! Time = 4870.42s, Average fail depth = 19, Memory usage = 2.1 GB
 !               Branches  Non-fixed    W       Branch decision
                     480M          6    5   F     0  = W3_3
                     480M          9    6        -1  = W2_3
                     480M          7    3         0 != W0_3
                     480M         10    7         0  = V0_1
                     490M          6    8   F     0  = V4_2
                     490M         10    2         0 != U1_1
                     490M          7    1         0  = U0_3
                     490M          7    4   F     1 != U3_0
                     490M          8    5         1 != U4_1
                     490M          8    6         0 != W1_3
                     490M          7    3        -1 != W0_3
                     490M          8    7   F     1  = W0_3
                     500M          6    8   F     1  = V3_2
                     500M          8    1   F     1  = U1_3
                     500M          7    2   F     1 != V3_3
                     500M          7    4   F     0  = W4_3
                     500M          8    5   F     1  = U1_2
                     500M          7    6        -1  = V4_0
                     500M          7    3         1 != U1_0
                     500M          8    7        -1 != U2_2
 ! Time = 5112.58s, Average fail depth = 18, Memory usage = 2.2 GB
 !               Branches  Non-fixed    W       Branch decision
                     510M          6    8         0 != V0_0
                     510M          8    1   F    -1  = W0_3
                     510M          9    2         0 != U3_0
                     510M          6    4         0  = U2_3
                     510M          9    5        -1 != V1_1
                     510M          7    6         1 != W3_3
                     510M          8    3   F     1 != V2_2
                     510M          9    7         1 != V1_3
                     520M          6    8   F    -1  = V4_2
                     520M          8    2   F     0 != V3_3
                     520M          7    1        -1 != V4_1
                     520M          8    4        -1 != W0_0
                     520M          7    5         0  = U4_2
                     520M          7    6         0 != U0_0
                     520M         10    3         0 != V4_3
                     520M          9    7   F     1 != W0_0
                     530M          6    4         0 != V4_0
                     530M          6    8            -
                     530M          7    1   F     1  = V0_1
                     530M          8    2         1 != U4_3
 ! Time = 5377.69s, Average fail depth = 19, Memory usage = 2.3 GB
 !               Branches  Non-fixed    W       Branch decision
                     530M          9    5   F    -1 != U1_0
                     530M          8    6        -1  = V4_1
                     530M          7    3        -1 != U1_0
                     530M          7    7   F     1  = U0_1
                     540M          8    1        -1  = W0_3
                     540M          8    4         0 != V0_3
                     540M          6    8         1  = V3_1
                     540M          8    2         0 != W2_3
                     540M          8    5   F     1 != U3_0
                     540M          8    6         0  = V3_0
                     540M         13    3         0  = V0_1
                     540M         12    7        -1 != V3_1
                     550M          8    1   F     1 != W3_0
                     550M          6    8         0  = W2_2
                     550M          8    4   F     1 != V1_1
                     550M          8    2   F     0  = U4_1
                     550M          8    6   F    -1 != W4_1
                     550M          8    5         0 != V3_0
                     550M          8    3        -1 != U2_1
                     550M          9    7         0 != U3_1
 ! Time = 5667.06s, Average fail depth = 19, Memory usage = 2.4 GB
 !               Branches  Non-fixed    W       Branch decision
                     560M          8    1   F     0  = W4_3
                     560M          8    4         0  = W3_0
                     560M          8    2         0  = V2_1
                     560M          6    8   F     0 != W0_3
                     560M         13    5   F    -1 != U1_0
                     560M          9    6   F    -1  = U1_2
                     560M          7    3        -1 != U4_1
                     560M          8    7         0 != V3_2
                     570M          7    1         0  = V2_3
                     570M          9    2   F     1  = W0_1
                     570M          8    4        -1  = V0_0
                     570M          6    8   F     0 != V1_1
                     570M          7    5        -1 != W3_3
                     570M          7    6         1 != V2_3
                     570M          7    3        -1  = V3_1
                     570M          8    7        -1 != V2_1
                     580M          7    4         0 != V0_2
                     580M          8    1   F    -1  = V0_1
                     580M          7    2   F     0 != W2_3
                     580M          6    8   F     1  = W1_2
 ! Time = 5886.72s, Average fail depth = 18, Memory usage = 2.5 GB
 !               Branches  Non-fixed    W       Branch decision
                     580M          9    5   F    -1  = V0_0
                     580M          8    6         1  = U1_1
                     580M         11    3        -1 != W2_1
                     580M         12    7         1 != V2_1
                     590M          7    4   F     1  = V0_3
                     590M          7    1   F     1  = V4_2
                     590M          7    2         0 != U2_1
                     590M          6    8         1 != U2_1
                     590M          9    5         0 != U4_1
                     590M          8    6         0 != U0_1
                     590M          7    3   F     0 != V4_3
                     590M          7    7         1 != V3_1
                     600M          9    1        -1  = V2_0
                     600M          8    2   F    -1 != W0_1
                     600M          8    4         0 != V1_3
                     600M          9    5   F    -1  = V0_2
                     600M          6    8        -1 != W2_1
                     600M          8    6   F     1 != W1_1
                     600M          7    3   F     0  = V0_3
                     610M          7    2         0 != W3_0
 ! Time = 6182.54s, Average fail depth = 18, Memory usage = 2.6 GB
 !               Branches  Non-fixed    W       Branch decision
                     610M          8    4   F    -1  = W1_0
                     610M          7    1   F     1 != W4_3
                     600M          7    7        -1 != W2_0
                     610M          6    8   F    -1 != V3_1
                     610M          9    5   F    -1  = U2_2
                     610M          8    6   F    -1 != U3_0
                     610M          7    3        -1  = U3_1
                     620M         10    2   F    -1  = V0_3
                     620M          8    4         0 != V3_3
                     610M          7    7         0  = W2_1
                     620M          7    5   F     0  = U2_1
                     620M          6    8         0  = W2_0
                     620M          9    1   F     0  = W1_2
                     620M          8    6         0  = W4_3
                     630M          7    2         0 != V4_1
                     620M          7    7   F     0  = V3_2
                     630M          8    4   F     0  = U0_3
                     620M         12    3   F    -1  = V2_1
                     630M          8    5   F     1  = V4_1
                     630M          6    8         1  = U4_2
 ! Time = 6394.90s, Average fail depth = 18, Memory usage = 2.8 GB
 !               Branches  Non-fixed    W       Branch decision
                     630M          8    1   F     1  = U4_0
                     630M          8    6         0 != U4_3
                     630M          7    7        -1 != U4_2
                     630M          7    3        -1 != V4_3
                     640M         10    4   F     1  = U1_3
                     640M          8    5   F    -1  = W3_0
                     640M          7    2         1  = V3_3
                     640M          6    8         0  = W4_0
                     640M          9    1   F     0  = W3_0
                     640M          8    6   F     0  = V3_2
                     640M         12    7        -1 != V0_1
                     640M          7    3         1  = V2_3
                     650M          9    5         1 != W4_3
                     650M         10    4         1  = W0_3
                     650M          7    2         0  = U1_3
                     650M          6    8         1 != V4_0
                     650M          8    1   F     0  = V1_1
                     650M          8    6         1  = V3_2
                     650M          8    7   F     1  = W2_2
                     650M          7    3   F    -1  = W3_1
 ! Time = 6680.34s, Average fail depth = 18, Memory usage = 2.9 GB
 !               Branches  Non-fixed    W       Branch decision
                     660M          8    4         1 != U3_3
                     660M          8    2         0  = W2_0
                     660M          7    5   F    -1 != V2_1
                     660M          6    8        -1 != V1_1
                     660M          8    6        -1 != V4_1
                     660M          8    1   F     0  = W1_3
                     660M          8    7        -1 != W2_3
                     660M          7    3   F    -1  = V1_1
                     670M          8    2         0 != W2_1
                     670M         13    5        -1 != V1_0
                     670M          8    4   F     1 != U2_1
                     670M          6    8   F    -1  = V3_2
                     670M          8    6        -1 != U1_1
                     670M          9    1   F     0  = W0_0
                     670M         11    7        -1 != W4_2
                     670M          9    3   F     1  = V0_3
                     680M          8    5   F     1  = U0_2
                     680M          8    2   F     1  = V2_1
                     680M          7    4         0  = W2_2
                     680M          7    8   F        -
 ! Time = 6907.88s, Average fail depth = 18, Memory usage = 3.0 GB
 !               Branches  Non-fixed    W       Branch decision
                     680M          8    6   F    -1  = U2_0
                     680M          8    1         1 != U3_1
                     680M         12    7   F     1  = W4_3
                     680M         11    3        -1  = V0_0
                     690M          8    5   F    -1 != W3_0
                     690M          8    4        -1 != W0_3
                     690M          7    2   F     0 != V2_3
                     690M          6    8         0 != U3_0
                     690M          8    6   F     1 != V2_2
                     690M          9    1   F    -1  = U2_1
                     690M         12    7   F     1  = U1_1
                     700M          7    4   F    -1 != U4_0
                     690M          9    3         0 != U0_1
                     700M          9    5         1  = W3_1
                     700M          8    2   F     1 != W0_0
                     700M          6    8         1 != W3_0
                     700M          8    6         1  = W0_0
                     700M          9    1   F     0 != V4_0
submitit WARNING (2023-04-30 15:42:42,351) - Bypassing signal SIGCONT
submitit INFO (2023-04-30 15:42:42,365) - Job has timed out. Ran 119 minutes out of requested 121 minutes.
submitit WARNING (2023-04-30 15:42:42,365) - Caught signal SIGUSR2 on cpunode24: this job is timed-out.
submitit INFO (2023-04-30 15:42:42,365) - Job not requeued because: timed-out and not checkpointable.
submitit ERROR (2023-04-30 15:42:42,382) - Submitted job triggered an exception
